partE/conjure-output/model000001-data2.eprime-param.fzn
array [1..20] of int: weights_FunctionAsRelation_RelationAsSet_Explicit_1 = [1, 2, 3, 4, 5, 6, 7, 8, 9, 10, 11, 12, 13, 14, 15, 16, 17, 18, 19, 20];
array [1..20] of int: weights_FunctionAsRelation_RelationAsSet_Explicit_2 = [500, 500, 600, 200, 1000, 700, 900, 1000, 500, 1000, 300, 400, 800, 250, 350, 750, 950, 550, 650, 450];
array [1..20] of int: impacts_FunctionAsRelation_RelationAsSet_Explicit_1 = [1, 2, 3, 4, 5, 6, 7, 8, 9, 10, 11, 12, 13, 14, 15, 16, 17, 18, 19, 20];
array [1..20] of int: impacts_FunctionAsRelation_RelationAsSet_Explicit_2 = [8, 7, 8, 8, 8, 7, 9, 10, 7, 4, 6, 5, 9, 7, 6, 8, 5, 7, 6, 8];
array [1..20] of int: volumes_FunctionAsRelation_RelationAsSet_Explicit_2 = [1000, 1000, 1500, 500, 1500, 1000, 1600, 1200, 700, 2000, 600, 800, 1700, 400, 900, 1100, 1800, 850, 950, 750];
array [1..20] of int: volumes_FunctionAsRelation_RelationAsSet_Explicit_1 = [1, 2, 3, 4, 5, 6, 7, 8, 9, 10, 11, 12, 13, 14, 15, 16, 17, 18, 19, 20];
var {0,1}: selected_Occurrence_00001_INTEGER :: output_var ;
var {0,1}: selected_Occurrence_00002_INTEGER :: output_var ;
var {0,1}: selected_Occurrence_00003_INTEGER :: output_var ;
var {0,1}: selected_Occurrence_00004_INTEGER :: output_var ;
var {0,1}: selected_Occurrence_00005_INTEGER :: output_var ;
var {0,1}: selected_Occurrence_00006_INTEGER :: output_var ;
var {0,1}: selected_Occurrence_00007_INTEGER :: output_var ;
var {0,1}: selected_Occurrence_00008_INTEGER :: output_var ;
var {0,1}: selected_Occurrence_00009_INTEGER :: output_var ;
var {0,1}: selected_Occurrence_00010_INTEGER :: output_var ;
var {0,1}: selected_Occurrence_00011_INTEGER :: output_var ;
var {0,1}: selected_Occurrence_00012_INTEGER :: output_var ;
var {0,1}: selected_Occurrence_00013_INTEGER :: output_var ;
var {0,1}: selected_Occurrence_00014_INTEGER :: output_var ;
var {0,1}: selected_Occurrence_00015_INTEGER :: output_var ;
var {0,1}: selected_Occurrence_00016_INTEGER :: output_var ;
var {0,1}: selected_Occurrence_00017_INTEGER :: output_var ;
var {0,1}: selected_Occurrence_00018_INTEGER :: output_var ;
var {0,1}: selected_Occurrence_00019_INTEGER :: output_var ;
var {0,1}: selected_Occurrence_00020_INTEGER :: output_var ;
var {0,4,5,6,7,8,9,10,11,12,13,14,15,16,17,18,19,20,21,22,23,24,25,26,27,28,29,30,31,32,33,34,35,36,37,38,39,40,41,42,43,44,45,46,47,48,49,50,51,52,53,54,55,56,57,58,59,60,61,62,63,64,65,66,67,68,69,70,71,72,73,74,75,76,77,78,79,80,81,82,83,84,85,86,87,88,89,90,91,92,93,94,95,96,97,98,99,100,101,102,103,104,105,106,107,108,109,110,111,112,113,114,115,116,117,118,119,120,121,122,123,124,125,126,127,128,129,130,131,132,133,134}: aux0:: var_is_introduced ;
constraint int_lin_eq([-1,8,7,8,8,8,7,9,10,7,4,6,5,9,7,6,8,5,7,6,8],[aux0,selected_Occurrence_00001_INTEGER,selected_Occurrence_00002_INTEGER,selected_Occurrence_00003_INTEGER,selected_Occurrence_00004_INTEGER,selected_Occurrence_00005_INTEGER,selected_Occurrence_00006_INTEGER,selected_Occurrence_00007_INTEGER,selected_Occurrence_00008_INTEGER,selected_Occurrence_00009_INTEGER,selected_Occurrence_00010_INTEGER,selected_Occurrence_00011_INTEGER,selected_Occurrence_00012_INTEGER,selected_Occurrence_00013_INTEGER,selected_Occurrence_00014_INTEGER,selected_Occurrence_00015_INTEGER,selected_Occurrence_00016_INTEGER,selected_Occurrence_00017_INTEGER,selected_Occurrence_00018_INTEGER,selected_Occurrence_00019_INTEGER,selected_Occurrence_00020_INTEGER],0);
constraint int_lin_le([20,20,30,10,30,20,32,24,14,40,12,16,34,8,18,22,36,17,19,15,-1],[selected_Occurrence_00001_INTEGER,selected_Occurrence_00002_INTEGER,selected_Occurrence_00003_INTEGER,selected_Occurrence_00004_INTEGER,selected_Occurrence_00005_INTEGER,selected_Occurrence_00006_INTEGER,selected_Occurrence_00007_INTEGER,selected_Occurrence_00008_INTEGER,selected_Occurrence_00009_INTEGER,selected_Occurrence_00010_INTEGER,selected_Occurrence_00011_INTEGER,selected_Occurrence_00012_INTEGER,selected_Occurrence_00013_INTEGER,selected_Occurrence_00014_INTEGER,selected_Occurrence_00015_INTEGER,selected_Occurrence_00016_INTEGER,selected_Occurrence_00017_INTEGER,selected_Occurrence_00018_INTEGER,selected_Occurrence_00019_INTEGER,selected_Occurrence_00020_INTEGER,120],0);
constraint int_lin_le([10,10,12,4,20,14,18,20,10,20,6,8,16,5,7,15,19,11,13,9,-1],[selected_Occurrence_00001_INTEGER,selected_Occurrence_00002_INTEGER,selected_Occurrence_00003_INTEGER,selected_Occurrence_00004_INTEGER,selected_Occurrence_00005_INTEGER,selected_Occurrence_00006_INTEGER,selected_Occurrence_00007_INTEGER,selected_Occurrence_00008_INTEGER,selected_Occurrence_00009_INTEGER,selected_Occurrence_00010_INTEGER,selected_Occurrence_00011_INTEGER,selected_Occurrence_00012_INTEGER,selected_Occurrence_00013_INTEGER,selected_Occurrence_00014_INTEGER,selected_Occurrence_00015_INTEGER,selected_Occurrence_00016_INTEGER,selected_Occurrence_00017_INTEGER,selected_Occurrence_00018_INTEGER,selected_Occurrence_00019_INTEGER,selected_Occurrence_00020_INTEGER,120],0);

solve :: int_search([selected_Occurrence_00001_INTEGER, selected_Occurrence_00002_INTEGER, selected_Occurrence_00003_INTEGER, selected_Occurrence_00004_INTEGER, selected_Occurrence_00005_INTEGER, selected_Occurrence_00006_INTEGER, selected_Occurrence_00007_INTEGER, selected_Occurrence_00008_INTEGER, selected_Occurrence_00009_INTEGER, selected_Occurrence_00010_INTEGER, selected_Occurrence_00011_INTEGER, selected_Occurrence_00012_INTEGER, selected_Occurrence_00013_INTEGER, selected_Occurrence_00014_INTEGER, selected_Occurrence_00015_INTEGER, selected_Occurrence_00016_INTEGER, selected_Occurrence_00017_INTEGER, selected_Occurrence_00018_INTEGER, selected_Occurrence_00019_INTEGER, selected_Occurrence_00020_INTEGER], input_order, indomain_min, complete)maximize aux0;
